submitit INFO (2023-04-29 16:43:32,441) - Starting with JobEnvironment(job_id=27477, hostname=cpunode2, local_rank=0(5), node=0(1), global_rank=0(5))
submitit INFO (2023-04-29 16:43:32,441) - Loading pickle: /h/30/pashootan/Matrix-Mult-CP/src/../logs/2x2x2_2_Apr29_16:43:30/27477_submitted.pkl
 ! --------------------------------------------------- CP Optimizer 22.1.1.0 --
 ! Satisfiability problem - 24 variables, 64 constraints
 ! TimeLimit            = 7200
 ! Workers              = 8
 ! LogPeriod            = 10000000
 ! RandomSeed           = 8793
 ! Initial process time : 0.01s (0.01s extraction + 0.00s propagation)
 !  . Log search space  : 38.0 (before), 38.0 (after)
 !  . Memory usage      : 332.0 kB (before), 332.0 kB (after)
 ! Using parallel search with 8 workers.
 ! ----------------------------------------------------------------------------
 !               Branches  Non-fixed    W       Branch decision
 ! ----------------------------------------------------------------------------
 ! Search completed, model has no solution.
 ! ----------------------------------------------------------------------------
 ! Number of branches     : 4481
 ! Number of fails        : 2212
 ! Total memory usage     : 4.9 MB (4.9 MB CP Optimizer + 0.0 MB Concert)
 ! Time spent in solve    : 0.01s (0.00s engine + 0.01s extraction)
 ! Search speed (br. / s) : 448100.0
 ! ----------------------------------------------------------------------------
Infeasible
Saving stats to: /h/30/pashootan/Matrix-Mult-CP/logs/2x2x2_2_Apr29_16:43:30/27477_0_stats.csv
submitit INFO (2023-04-29 16:43:32,849) - Job completed successfully
